[VALIDATOR STDOUT]
Type-checking move
...action passes type checking.
Type-checking pick
...action passes type checking.
Type-checking drop
...action passes type checking.
Checking plan: /home/jfan5/Safety-gen/runs/benchmark/optic/grippers_20260205_142606/grippers/optic_results/grippers-n3-r25-o23-s23001.plan
Plan to validate:

Plan size: 88
1:
(pick robot3 ball16 room5 lgripper3)
 
2:
(pick robot2 ball18 room16 lgripper2)
 
3:
(move robot1 room2 room9)
 
4:
(move robot2 room16 room9)
 
5:
(move robot3 room5 room18)
 
6:
(pick robot1 ball5 room9 lgripper1)
 
7:
(move robot2 room9 room20)
 
8:
(pick robot3 ball6 room18 rgripper3)
 
9:
(move robot1 room9 room20)
 
10:
(drop robot2 ball18 room20 lgripper2)
 
11:
(move robot3 room18 room12)
 
12:
(move robot1 room20 room3)
 
13:
(pick robot2 ball12 room20 rgripper2)
 
14:
(drop robot3 ball6 room12 rgripper3)
 
15:
(pick robot1 ball23 room3 rgripper1)
 
16:
(drop robot1 ball5 room3 lgripper1)
 
17:
(move robot2 room20 room8)
 
18:
(move robot3 room12 room1)
 
19:
(move robot1 room3 room24)
 
20:
(move robot2 room8 room15)
 
21:
(drop robot3 ball16 room1 lgripper3)
 
22:
(drop robot1 ball23 room24 rgripper1)
 
23:
(pick robot3 ball21 room1 rgripper3)
 
24:
(drop robot2 ball12 room15 rgripper2)
 
25:
(pick robot2 ball7 room15 lgripper2)
 
26:
(move robot3 room1 room5)
 
27:
(move robot2 room15 room22)
 
28:
(move robot1 room24 room7)
 
29:
(drop robot3 ball21 room5 rgripper3)
 
30:
(drop robot2 ball7 room22 lgripper2)
 
31:
(pick robot1 ball8 room7 lgripper1)
 
32:
(move robot1 room7 room8)
 
33:
(move robot3 room5 room21)
 
34:
(move robot2 room22 room19)
 
35:
(move robot2 room19 room3)
 
36:
(drop robot1 ball8 room8 lgripper1)
 
37:
(pick robot1 ball1 room8 rgripper1)
 
38:
(pick robot3 ball4 room21 lgripper3)
 
39:
(move robot3 room21 room6)
 
40:
(move robot1 room8 room21)
 
41:
(pick robot2 ball19 room3 lgripper2)
 
42:
(drop robot3 ball4 room6 lgripper3)
 
43:
(drop robot1 ball1 room21 rgripper1)
 
44:
(move robot2 room3 room5)
 
45:
(move robot1 room21 room5)
 
46:
(move robot3 room6 room25)
 
47:
(move robot2 room5 room13)
 
48:
(move robot1 room5 room23)
 
49:
(pick robot3 ball15 room25 lgripper3)
 
50:
(drop robot2 ball19 room13 lgripper2)
 
51:
(pick robot2 ball11 room13 rgripper2)
 
52:
(move robot3 room25 room4)
 
53:
(move robot2 room13 room25)
 
54:
(pick robot1 ball22 room23 lgripper1)
 
55:
(pick robot1 ball17 room23 rgripper1)
 
56:
(drop robot3 ball15 room4 lgripper3)
 
57:
(drop robot2 ball11 room25 rgripper2)
 
58:
(move robot1 room23 room5)
 
59:
(drop robot1 ball17 room5 rgripper1)
 
60:
(move robot2 room25 room23)
 
61:
(move robot3 room4 room19)
 
62:
(move robot1 room5 room3)
 
63:
(pick robot2 ball20 room23 lgripper2)
 
64:
(move robot3 room19 room17)
 
65:
(drop robot1 ball22 room3 lgripper1)
 
66:
(move robot2 room23 room25)
 
67:
(pick robot3 ball3 room17 lgripper3)
 
68:
(pick robot3 ball10 room17 rgripper3)
 
69:
(drop robot2 ball20 room25 lgripper2)
 
70:
(move robot1 room3 room15)
 
71:
(move robot3 room17 room11)
 
72:
(drop robot3 ball10 room11 rgripper3)
 
73:
(move robot2 room25 room19)
 
74:
(pick robot1 ball2 room15 lgripper1)
 
75:
(pick robot1 ball14 room15 rgripper1)
 
76:
(move robot3 room11 room10)
 
77:
(move robot1 room15 room17)
 
78:
(move robot2 room19 room14)
 
79:
(drop robot1 ball14 room17 rgripper1)
 
80:
(drop robot3 ball3 room10 lgripper3)
 
81:
(pick robot3 ball13 room10 rgripper3)
 
82:
(pick robot2 ball9 room14 lgripper2)
 
83:
(move robot3 room10 room19)
 
84:
(move robot1 room17 room13)
 
85:
(move robot2 room14 room19)
 
86:
(drop robot3 ball13 room19 rgripper3)
 
87:
(drop robot1 ball2 room13 lgripper1)
 
88:
(drop robot2 ball9 room19 lgripper2)
 

Plan Validation details
-----------------------

Checking next happening (time 1)
Deleting (at ball16 room5)
Deleting (free robot3 lgripper3)
Adding (carry robot3 ball16 lgripper3)

Checking next happening (time 2)
Deleting (at ball18 room16)
Deleting (free robot2 lgripper2)
Adding (carry robot2 ball18 lgripper2)

Checking next happening (time 3)
Deleting (at-robby robot1 room2)
Adding (at-robby robot1 room9)

Checking next happening (time 4)
Deleting (at-robby robot2 room16)
Adding (at-robby robot2 room9)

Checking next happening (time 5)
Deleting (at-robby robot3 room5)
Adding (at-robby robot3 room18)

Checking next happening (time 6)
Deleting (at ball5 room9)
Deleting (free robot1 lgripper1)
Adding (carry robot1 ball5 lgripper1)

Checking next happening (time 7)
Deleting (at-robby robot2 room9)
Adding (at-robby robot2 room20)

Checking next happening (time 8)
Deleting (at ball6 room18)
Deleting (free robot3 rgripper3)
Adding (carry robot3 ball6 rgripper3)

Checking next happening (time 9)
Deleting (at-robby robot1 room9)
Adding (at-robby robot1 room20)

Checking next happening (time 10)
Deleting (carry robot2 ball18 lgripper2)
Adding (at ball18 room20)
Adding (free robot2 lgripper2)

Checking next happening (time 11)
Deleting (at-robby robot3 room18)
Adding (at-robby robot3 room12)

Checking next happening (time 12)
Deleting (at-robby robot1 room20)
Adding (at-robby robot1 room3)

Checking next happening (time 13)
Deleting (at ball12 room20)
Deleting (free robot2 rgripper2)
Adding (carry robot2 ball12 rgripper2)

Checking next happening (time 14)
Deleting (carry robot3 ball6 rgripper3)
Adding (at ball6 room12)
Adding (free robot3 rgripper3)

Checking next happening (time 15)
Deleting (at ball23 room3)
Deleting (free robot1 rgripper1)
Adding (carry robot1 ball23 rgripper1)

Checking next happening (time 16)
Deleting (carry robot1 ball5 lgripper1)
Adding (at ball5 room3)
Adding (free robot1 lgripper1)

Checking next happening (time 17)
Deleting (at-robby robot2 room20)
Adding (at-robby robot2 room8)

Checking next happening (time 18)
Deleting (at-robby robot3 room12)
Adding (at-robby robot3 room1)

Checking next happening (time 19)
Deleting (at-robby robot1 room3)
Adding (at-robby robot1 room24)

Checking next happening (time 20)
Deleting (at-robby robot2 room8)
Adding (at-robby robot2 room15)

Checking next happening (time 21)
Deleting (carry robot3 ball16 lgripper3)
Adding (at ball16 room1)
Adding (free robot3 lgripper3)

Checking next happening (time 22)
Deleting (carry robot1 ball23 rgripper1)
Adding (at ball23 room24)
Adding (free robot1 rgripper1)

Checking next happening (time 23)
Deleting (at ball21 room1)
Deleting (free robot3 rgripper3)
Adding (carry robot3 ball21 rgripper3)

Checking next happening (time 24)
Deleting (carry robot2 ball12 rgripper2)
Adding (at ball12 room15)
Adding (free robot2 rgripper2)

Checking next happening (time 25)
Deleting (at ball7 room15)
Deleting (free robot2 lgripper2)
Adding (carry robot2 ball7 lgripper2)

Checking next happening (time 26)
Deleting (at-robby robot3 room1)
Adding (at-robby robot3 room5)

Checking next happening (time 27)
Deleting (at-robby robot2 room15)
Adding (at-robby robot2 room22)

Checking next happening (time 28)
Deleting (at-robby robot1 room24)
Adding (at-robby robot1 room7)

Checking next happening (time 29)
Deleting (carry robot3 ball21 rgripper3)
Adding (at ball21 room5)
Adding (free robot3 rgripper3)

Checking next happening (time 30)
Deleting (carry robot2 ball7 lgripper2)
Adding (at ball7 room22)
Adding (free robot2 lgripper2)

Checking next happening (time 31)
Deleting (at ball8 room7)
Deleting (free robot1 lgripper1)
Adding (carry robot1 ball8 lgripper1)

Checking next happening (time 32)
Deleting (at-robby robot1 room7)
Adding (at-robby robot1 room8)

Checking next happening (time 33)
Deleting (at-robby robot3 room5)
Adding (at-robby robot3 room21)

Checking next happening (time 34)
Deleting (at-robby robot2 room22)
Adding (at-robby robot2 room19)

Checking next happening (time 35)
Deleting (at-robby robot2 room19)
Adding (at-robby robot2 room3)

Checking next happening (time 36)
Deleting (carry robot1 ball8 lgripper1)
Adding (at ball8 room8)
Adding (free robot1 lgripper1)

Checking next happening (time 37)
Deleting (at ball1 room8)
Deleting (free robot1 rgripper1)
Adding (carry robot1 ball1 rgripper1)

Checking next happening (time 38)
Deleting (at ball4 room21)
Deleting (free robot3 lgripper3)
Adding (carry robot3 ball4 lgripper3)

Checking next happening (time 39)
Deleting (at-robby robot3 room21)
Adding (at-robby robot3 room6)

Checking next happening (time 40)
Deleting (at-robby robot1 room8)
Adding (at-robby robot1 room21)

Checking next happening (time 41)
Deleting (at ball19 room3)
Deleting (free robot2 lgripper2)
Adding (carry robot2 ball19 lgripper2)

Checking next happening (time 42)
Deleting (carry robot3 ball4 lgripper3)
Adding (at ball4 room6)
Adding (free robot3 lgripper3)

Checking next happening (time 43)
Deleting (carry robot1 ball1 rgripper1)
Adding (at ball1 room21)
Adding (free robot1 rgripper1)

Checking next happening (time 44)
Deleting (at-robby robot2 room3)
Adding (at-robby robot2 room5)

Checking next happening (time 45)
Deleting (at-robby robot1 room21)
Adding (at-robby robot1 room5)

Checking next happening (time 46)
Deleting (at-robby robot3 room6)
Adding (at-robby robot3 room25)

Checking next happening (time 47)
Deleting (at-robby robot2 room5)
Adding (at-robby robot2 room13)

Checking next happening (time 48)
Deleting (at-robby robot1 room5)
Adding (at-robby robot1 room23)

Checking next happening (time 49)
Deleting (at ball15 room25)
Deleting (free robot3 lgripper3)
Adding (carry robot3 ball15 lgripper3)

Checking next happening (time 50)
Deleting (carry robot2 ball19 lgripper2)
Adding (at ball19 room13)
Adding (free robot2 lgripper2)

Checking next happening (time 51)
Deleting (at ball11 room13)
Deleting (free robot2 rgripper2)
Adding (carry robot2 ball11 rgripper2)

Checking next happening (time 52)
Deleting (at-robby robot3 room25)
Adding (at-robby robot3 room4)

Checking next happening (time 53)
Deleting (at-robby robot2 room13)
Adding (at-robby robot2 room25)

Checking next happening (time 54)
Deleting (at ball22 room23)
Deleting (free robot1 lgripper1)
Adding (carry robot1 ball22 lgripper1)

Checking next happening (time 55)
Deleting (at ball17 room23)
Deleting (free robot1 rgripper1)
Adding (carry robot1 ball17 rgripper1)

Checking next happening (time 56)
Deleting (carry robot3 ball15 lgripper3)
Adding (at ball15 room4)
Adding (free robot3 lgripper3)

Checking next happening (time 57)
Deleting (carry robot2 ball11 rgripper2)
Adding (at ball11 room25)
Adding (free robot2 rgripper2)

Checking next happening (time 58)
Deleting (at-robby robot1 room23)
Adding (at-robby robot1 room5)

Checking next happening (time 59)
Deleting (carry robot1 ball17 rgripper1)
Adding (at ball17 room5)
Adding (free robot1 rgripper1)

Checking next happening (time 60)
Deleting (at-robby robot2 room25)
Adding (at-robby robot2 room23)

Checking next happening (time 61)
Deleting (at-robby robot3 room4)
Adding (at-robby robot3 room19)

Checking next happening (time 62)
Deleting (at-robby robot1 room5)
Adding (at-robby robot1 room3)

Checking next happening (time 63)
Deleting (at ball20 room23)
Deleting (free robot2 lgripper2)
Adding (carry robot2 ball20 lgripper2)

Checking next happening (time 64)
Deleting (at-robby robot3 room19)
Adding (at-robby robot3 room17)

Checking next happening (time 65)
Deleting (carry robot1 ball22 lgripper1)
Adding (at ball22 room3)
Adding (free robot1 lgripper1)

Checking next happening (time 66)
Deleting (at-robby robot2 room23)
Adding (at-robby robot2 room25)

Checking next happening (time 67)
Deleting (at ball3 room17)
Deleting (free robot3 lgripper3)
Adding (carry robot3 ball3 lgripper3)

Checking next happening (time 68)
Deleting (at ball10 room17)
Deleting (free robot3 rgripper3)
Adding (carry robot3 ball10 rgripper3)

Checking next happening (time 69)
Deleting (carry robot2 ball20 lgripper2)
Adding (at ball20 room25)
Adding (free robot2 lgripper2)

Checking next happening (time 70)
Deleting (at-robby robot1 room3)
Adding (at-robby robot1 room15)

Checking next happening (time 71)
Deleting (at-robby robot3 room17)
Adding (at-robby robot3 room11)

Checking next happening (time 72)
Deleting (carry robot3 ball10 rgripper3)
Adding (at ball10 room11)
Adding (free robot3 rgripper3)

Checking next happening (time 73)
Deleting (at-robby robot2 room25)
Adding (at-robby robot2 room19)

Checking next happening (time 74)
Deleting (at ball2 room15)
Deleting (free robot1 lgripper1)
Adding (carry robot1 ball2 lgripper1)

Checking next happening (time 75)
Deleting (at ball14 room15)
Deleting (free robot1 rgripper1)
Adding (carry robot1 ball14 rgripper1)

Checking next happening (time 76)
Deleting (at-robby robot3 room11)
Adding (at-robby robot3 room10)

Checking next happening (time 77)
Deleting (at-robby robot1 room15)
Adding (at-robby robot1 room17)

Checking next happening (time 78)
Deleting (at-robby robot2 room19)
Adding (at-robby robot2 room14)

Checking next happening (time 79)
Deleting (carry robot1 ball14 rgripper1)
Adding (at ball14 room17)
Adding (free robot1 rgripper1)

Checking next happening (time 80)
Deleting (carry robot3 ball3 lgripper3)
Adding (at ball3 room10)
Adding (free robot3 lgripper3)

Checking next happening (time 81)
Deleting (at ball13 room10)
Deleting (free robot3 rgripper3)
Adding (carry robot3 ball13 rgripper3)

Checking next happening (time 82)
Deleting (at ball9 room14)
Deleting (free robot2 lgripper2)
Adding (carry robot2 ball9 lgripper2)

Checking next happening (time 83)
Deleting (at-robby robot3 room10)
Adding (at-robby robot3 room19)

Checking next happening (time 84)
Deleting (at-robby robot1 room17)
Adding (at-robby robot1 room13)

Checking next happening (time 85)
Deleting (at-robby robot2 room14)
Adding (at-robby robot2 room19)

Checking next happening (time 86)
Deleting (carry robot3 ball13 rgripper3)
Adding (at ball13 room19)
Adding (free robot3 rgripper3)

Checking next happening (time 87)
Deleting (carry robot1 ball2 lgripper1)
Adding (at ball2 room13)
Adding (free robot1 lgripper1)

Checking next happening (time 88)
Deleting (carry robot2 ball9 lgripper2)
Adding (at ball9 room19)
Adding (free robot2 lgripper2)
Plan executed successfully - checking goal
Plan valid
Final value: 88 

Successful plans:
Value: 88
 /home/jfan5/Safety-gen/runs/benchmark/optic/grippers_20260205_142606/grippers/optic_results/grippers-n3-r25-o23-s23001.plan 88
